runtime-EclipseApplication/AGM_IDE/z3/agm.smt2
(define-sort Feature () Bool)
(declare-const AGM Feature)
(declare-const A Feature)
(declare-const M Feature)
(declare-const L Feature)
(declare-const C Feature)
(declare-const R Feature)
(declare-const B Feature)
(declare-const N Feature)
(declare-const W Feature)
(declare-const V Feature)
(declare-const Y Feature)
(declare-const P Feature)
(declare-const S Feature)

(assert AGM)
(assert (and
   (= A AGM)
   (= M A)
   (= L A)
   (= C AGM)
   (= R AGM)
   (= (or B  N  W ) R)
   (not (and B N))
   (not (and B W))
   (not (and N W))
   (= V AGM)
   (= Y V)
   (= P V)
   (=> S V)
))

(push)
(assert (and S W S))
(check-sat)
(pop)
